20
3 2 1
4 2 1
4 3 1
5 1 1
6 0 1
6 1 1
6 2 1
6 3 1
6 4 1
7 1 1
7 2 1
7 4 1
7 6 1
8 1 1
8 3 1
8 7 1
9 0 1
9 2 1
9 5 1
9 7 1
10 0 1
10 4 1
10 6 1
10 7 1
10 8 1
11 3 1
11 5 1
11 7 1
11 8 1
11 9 1
11 10 1
12 0 1
12 2 1
12 3 1
12 4 1
12 5 1
12 6 1
12 11 1
13 0 1
13 4 1
13 7 1
13 8 1
13 10 1
13 12 1
14 1 1
14 2 1
14 6 1
14 8 1
14 10 1
14 13 1
15 3 1
15 7 1
15 8 1
15 9 1
15 10 1
15 12 1
15 13 1
16 3 1
16 7 1
16 9 1
16 10 1
16 12 1
16 13 1
16 14 1
16 15 1
17 0 1
17 1 1
17 2 1
17 4 1
17 5 1
17 7 1
17 8 1
17 10 1
17 11 1
17 12 1
17 15 1
17 16 1
18 0 1
18 4 1
18 6 1
18 7 1
18 8 1
18 9 1
18 13 1
18 15 1
19 3 1
19 4 1
19 5 1
19 7 1
19 9 1
19 10 1
19 12 1
19 14 1
